# Solution for model GasLib-40
# Objective value = 1.0911797975927199e+01
loadshed[innode_1] 0
loadshed[innode_2] 0
loadshed[innode_3] 0
loadshed[innode_4] 0
loadshed[innode_5] 0
loadshed[innode_6] 0
loadshed[innode_7] 0
loadshed[innode_8] 0
loadshed[source_1] -0.311804753962162
loadshed[source_2] 0.0817127099202355
loadshed[source_3] 2.9911461854369936e-01
loadshed[sink_1] 0
loadshed[sink_2] 0
loadshed[sink_3] 0
loadshed[sink_4] 0
loadshed[sink_5] 0
loadshed[sink_6] 0
loadshed[sink_7] 0
loadshed[sink_8] 0
loadshed[sink_9] 0
loadshed[sink_10] 0
loadshed[sink_11] 0
loadshed[sink_12] 6.6721822018408339e-01
loadshed[sink_13] 0
loadshed[sink_14] 0
loadshed[sink_15] 0
loadshed[sink_16] 0
loadshed[sink_17] 0
loadshed[sink_18] 0
loadshed[sink_19] 0
loadshed[sink_20] 0
loadshed[sink_21] 0
loadshed[sink_22] 0
loadshed[sink_23] 0
loadshed[sink_24] 0
loadshed[sink_25] 0
loadshed[sink_26] 0
loadshed[sink_27] 0
loadshed[sink_28] 0
loadshed[sink_29] 0
flow[source_1,sink_3] 2.0738357794408762e+02
flow[innode_1,sink_16] 1.6354166666666970e+01
flow[innode_6,sink_13] 3.6760020218557656e+00
flow[sink_13,sink_14] -1.2678164644810902e+01
flow[sink_14,sink_10] -2.9032331311477719e+01
flow[sink_25,sink_26] 1.6873918340739579e+02
flow[sink_26,sink_9] 1.2760226356481789e+02
flow[sink_9,sink_18] 1.1124809689815122e+02
flow[sink_26,sink_4] 2.4782753175911239e+01
flow[sink_4,sink_20] 8.4285865092445533e+00
flow[sink_18,sink_6] 9.4893930231484546e+01
flow[sink_25,innode_8] -1.7467524461075124e+02
flow[sink_6,sink_7] 4.5831430231484319e+01
flow[sink_6,sink_22] 3.2708333333333641e+01
flow[sink_7,sink_24] 3.8150702024072807e+01
flow[sink_22,sink_1] 1.6354166666666970e+01
flow[sink_24,sink_21] 2.1796535357406139e+01
flow[sink_21,sink_12] 5.44236869073947
flow[sink_7,sink_5] -8.6734384592551521e+00
flow[sink_5,sink_17] -2.5027605125921809e+01
flow[sink_17,sink_4] 0
flow[sink_17,sink_8] -4.1381771792588538e+01
flow[sink_3,sink_23] 16.3541666666697
flow[sink_8,sink_20] -5.7735938459255209e+01
flow[sink_25,sink_20] 6.5661518616677455e+01
flow[sink_25,sink_15] -7.9755626101844868e+01
flow[sink_15,sink_29] 0
flow[sink_29,sink_28] 1.6354166666667879e+01
flow[sink_29,sink_2] 1.1246395943517821e+02
flow[sink_2,sink_15] 9.6109792768511539e+01
flow[sink_29,innode_7] -1.4517229276851276e+02
flow[innode_4,sink_19] 4.2603615106093685e+01
flow[sink_19,innode_3] 7.8094831311477947e+01
flow[innode_4,innode_5] 6.8199549538716610e+01
flow[sink_27,innode_5] -6.8199549538716610e+01
flow[sink_27,sink_19] 5.1845382872049981e+01
flow[sink_10,sink_11] 3.2708333333333641e+01
flow[sink_10,innode_2] 0
flow[sink_10,innode_3] -7.8094831311477947e+01
flow[innode_6,sink_25] -3.6760020218557656e+00
flow[sink_11,innode_1] 1.6354166666666970e+01
flow[sink_19,innode_2] 0
flow[source_3,innode_4] 1.1080316464481029e+02
flow[source_2,innode_7] 1.4517229276851276e+02
flow[sink_3,innode_8] 1.7467524461075124e+02
pressure[innode_1] 7.4804861739667487e+01
pressure[innode_2] 7.4956563047271032e+01
pressure[innode_3] 7.9114336836763187e+01
pressure[innode_4] 81.01325
pressure[innode_5] 8.0966338753653886e+01
pressure[innode_6] 7.3580951071126762e+01
pressure[innode_7] 81.01325
pressure[innode_8] 8.0320045922331218e+01
pressure[source_1] 81.01325
pressure[source_2] 81.01325
pressure[source_3] 81.01325
pressure[sink_1] 4.5399108865983017e+01
pressure[sink_2] 7.4281620864476253e+01
pressure[sink_3] 8.0320045922331218e+01
pressure[sink_4] 5.8545806099356987e+01
pressure[sink_5] 5.0478245413702595e+01
pressure[sink_6] 4.7500186476370388e+01
pressure[sink_7] 4.6871030184887317e+01
pressure[sink_8] 5.3904062847791778e+01
pressure[sink_9] 5.4059424672039931e+01
pressure[sink_10] 7.4956563047271032e+01
pressure[sink_11] 7.4804861739667487e+01
pressure[sink_12] 1.0132500000000002e+00
pressure[sink_13] 7.3560685886297279e+01
pressure[sink_14] 73.58337454187
pressure[sink_15] 7.3967843573344211e+01
pressure[sink_16] 7.3783211904849807e+01
pressure[sink_17] 5.2342621090857932e+01
pressure[sink_18] 5.0034136949911321e+01
pressure[sink_19] 7.9287268997422146e+01
pressure[sink_20] 5.7927445802250467e+01
pressure[sink_21] 2.9499426421637853e+00
pressure[sink_22] 4.6462878008338024e+01
pressure[sink_23] 8.0155327910671431e+01
pressure[sink_24] 3.1913190198504822e+00
pressure[sink_25] 7.3580951071126762e+01
pressure[sink_26] 61.6967494787709
pressure[sink_27] 80.4004085117
pressure[sink_28] 7.6835177606628633e+01
pressure[sink_29] 7.7130459880245809e+01
interdiction[source_1,sink_3] 0
interdiction[innode_1,sink_16] 0
interdiction[innode_6,sink_13] 0
interdiction[sink_13,sink_14] 0
interdiction[sink_14,sink_10] 0
interdiction[sink_25,sink_26] 0
interdiction[sink_26,sink_9] 0
interdiction[sink_9,sink_18] 0
interdiction[sink_26,sink_4] 0
interdiction[sink_4,sink_20] 0
interdiction[sink_18,sink_6] 0
interdiction[sink_25,innode_8] 0
interdiction[sink_6,sink_7] 0
interdiction[sink_6,sink_22] 0
interdiction[sink_7,sink_24] 0
interdiction[sink_22,sink_1] 0
interdiction[sink_24,sink_21] 0
interdiction[sink_21,sink_12] 0
interdiction[sink_7,sink_5] 0
interdiction[sink_5,sink_17] 0
interdiction[sink_17,sink_4] 1
interdiction[sink_17,sink_8] 0
interdiction[sink_3,sink_23] 0
interdiction[sink_8,sink_20] 0
interdiction[sink_25,sink_20] 0
interdiction[sink_25,sink_15] 0
interdiction[sink_15,sink_29] 1
interdiction[sink_29,sink_28] 0
interdiction[sink_29,sink_2] 0
interdiction[sink_2,sink_15] 0
interdiction[sink_29,innode_7] 0
interdiction[innode_4,sink_19] 0
interdiction[sink_19,innode_3] 0
interdiction[innode_4,innode_5] 0
interdiction[sink_27,innode_5] 0
interdiction[sink_27,sink_19] 0
interdiction[sink_10,sink_11] 0
interdiction[sink_10,innode_2] 0
interdiction[sink_10,innode_3] 0
interdiction[innode_6,sink_25] 0
interdiction[sink_11,innode_1] 0
interdiction[sink_19,innode_2] 1
interdiction[source_3,innode_4] 0
interdiction[source_2,innode_7] 0
interdiction[sink_3,innode_8] 0
WCcheckFlow[source_1,sink_3] 39
WCcheckFlow[innode_1,sink_16] 1
WCcheckFlow[innode_6,sink_13] 13
WCcheckFlow[sink_13,sink_14] 12
WCcheckFlow[sink_14,sink_10] 11
WCcheckFlow[sink_25,sink_26] 15
WCcheckFlow[sink_26,sink_9] 12
WCcheckFlow[sink_9,sink_18] 11
WCcheckFlow[sink_26,sink_4] 2
WCcheckFlow[sink_4,sink_20] 1
WCcheckFlow[sink_18,sink_6] 10
WCcheckFlow[sink_25,innode_8] -36
WCcheckFlow[sink_6,sink_7] 7
WCcheckFlow[sink_6,sink_22] 2
WCcheckFlow[sink_7,sink_24] 3
WCcheckFlow[sink_22,sink_1] 1
WCcheckFlow[sink_24,sink_21] 2
WCcheckFlow[sink_21,sink_12] 1
WCcheckFlow[sink_7,sink_5] 3
WCcheckFlow[sink_5,sink_17] 2
WCcheckFlow[sink_17,sink_4] 0
WCcheckFlow[sink_17,sink_8] 1
WCcheckFlow[sink_3,sink_23] 1
WCcheckFlow[sink_8,sink_20] 0
WCcheckFlow[sink_25,sink_20] 0
WCcheckFlow[sink_25,sink_15] 6
WCcheckFlow[sink_15,sink_29] 0
WCcheckFlow[sink_29,sink_28] 1
WCcheckFlow[sink_29,sink_2] -4
WCcheckFlow[sink_2,sink_15] -5
WCcheckFlow[sink_29,innode_7] 2
WCcheckFlow[innode_4,sink_19] -4
WCcheckFlow[sink_19,innode_3] -5
WCcheckFlow[innode_4,innode_5] 2
WCcheckFlow[sink_27,innode_5] -1
WCcheckFlow[sink_27,sink_19] 0
WCcheckFlow[sink_10,sink_11] 3
WCcheckFlow[sink_10,innode_2] 1
WCcheckFlow[sink_10,innode_3] 6
WCcheckFlow[innode_6,sink_25] -14
WCcheckFlow[sink_11,innode_1] 2
WCcheckFlow[sink_19,innode_2] 0
WCcheckFlow[source_3,innode_4] -1
WCcheckFlow[source_2,innode_7] -1
WCcheckFlow[sink_3,innode_8] 37
